benchmarks_vrp/CMT11/tsp_classic/CMT11_3.vrp
NAME: CMT11_3
TYPE: CVRP
COMMENT: 1042.11 - Cluster Nr.3
DIMENSION: 15
CAPACITY: 200
EDGE_WEIGHT_TYPE: EUC_2D
NODE_COORD_TYPE: TWOD_COORDS
NODE_COORD_SECTION: 
2 44 86
1 33 38
15 35 87
4 35 85
12 50 85
5 50 80
6 25 35
9 48 83
11 24 36
13 28 33
3 46 83
7 37 83
14 10 45
8 46 87
10 46 89
DEPOT_SECTION: 
14
-1
DEMAND_SECTION: 
4 14
14 0
7 17
10 13
11 12
9 5
15 16
2 7
13 12
6 4
12 28
1 13
5 13
3 9
8 11
EOF
