benchmarks_vrp/CMT11/tsp_classic/CMT11_3.tour
NAME: CMT11_3 solution
TYPE: TOUR
TOUR_SECTION:
14 7 4 15 2 8 10 12 9 3 5 1 13 6 11 -1
-1
EOF